[
  192952463,
  192952464,
  192952465,
  192952466,
  192952467,
  192952468,
  192952469,
  192952470,
  192952471,
  192952472,
  192952473,
  192952474,
  192952475,
  192952476,
  192952477,
  192952478,
  192952479,
  192952480,
  192952481,
  192952482,
  192952483,
  192952484,
  192952485,
  192952486,
  192952487,
  192952488,
  192952489,
  192952490,
  192952491,
  192952492,
  192952493,
  192952494,
  192952495,
  192952496,
  192952497,
  192952498,
  192952499,
  192952500,
  192952501,
  192952502,
  192952503,
  192952504
]